
===== New CPLEX run =====
Instance: /home/yorig/tuner/mpils-tests/instances/miplib/medium-1/mushroom-best.mps
Config: /scratch/yorig/mpils-results-grid-seconds-5/medium-1/24proc/seed-2/7_mushroom-best_seed-2_20260503_110448/expansion/config_param_CPXPARAM_MIP_Strategy_RINSHeur_20_iter_1.prm
========================

Selected objective sense:  MINIMIZE
Selected objective  name:  obj
Selected RHS        name:  rhs
Selected bound      name:  bnd
Version identifier: 22.1.2.0 | 2024-11-26 | 0edbb82fd
CPXPARAM_Threads                                 8
CPXPARAM_Parallel                                1
CPXPARAM_MIP_Cuts_Cliques                        1
CPXPARAM_MIP_Cuts_FlowCovers                     1
CPXPARAM_MIP_Cuts_GUBCovers                      -1
CPXPARAM_MIP_Limits_GomoryCand                   10
CPXPARAM_MIP_Cuts_Gomory                         -1
CPXPARAM_MIP_Cuts_PathCut                        1
CPXPARAM_MIP_Cuts_MIRCut                         -1
CPXPARAM_MIP_Cuts_Disjunctive                    2
CPXPARAM_Emphasis_MIP                            3
CPXPARAM_MIP_Strategy_RINSHeur                   20
CPXPARAM_TimeLimit                               5
Found incumbent of value 8124.895732 after 0.00 sec. (1.54 ticks)
Tried aggregator 2 times.
MIP Presolve eliminated 88 rows and 0 columns.
MIP Presolve modified 8124 coefficients.
Aggregator did 4 substitutions.
Reduced MIP has 8488 rows, 8464 columns, and 180316 nonzeros.
Reduced MIP has 8237 binaries, 114 generals, 0 SOSs, and 0 indicators.
Presolve time = 0.05 sec. (69.18 ticks)
Probing time = 0.00 sec. (2.69 ticks)
Tried aggregator 2 times.
Detecting symmetries...
MIP Presolve modified 6649 coefficients.
Aggregator did 44 substitutions.
Reduced MIP has 8444 rows, 8420 columns, and 180228 nonzeros.
Reduced MIP has 8237 binaries, 183 generals, 0 SOSs, and 0 indicators.
Presolve time = 0.08 sec. (102.88 ticks)
Probing time = 0.00 sec. (2.82 ticks)
MIP emphasis: best bound.
MIP search method: dynamic search.
Parallel mode: deterministic, using up to 8 threads.
Root relaxation solution time = 0.15 sec. (206.49 ticks)

        Nodes                                         Cuts/
   Node  Left     Objective  IInf  Best Integer    Best Bound    ItCnt     Gap

*     0+    0                         8124.8957        0.0000           100.00%
*     0+    0                         3916.5463        0.0000           100.00%
*     0+    0                         3916.5456        0.0000           100.00%
*     0+    0                         3916.5450        0.0000           100.00%
*     0+    0                         3916.0000        0.0000           100.00%
      0     0        0.0000    26     3916.0000        0.0000      406  100.00%
*     0+    0                           38.1106        0.0000           100.00%
*     0+    0                            0.0711        0.0000            99.98%
*     0+    0                            0.0632        0.0000            99.98%
      0     0  -1.00000e+75     0        0.0632        0.0000      406   99.98%

Repeating presolve.
Tried aggregator 1 time.
MIP Presolve eliminated 98 rows and 8128 columns.
MIP Presolve modified 8124 coefficients.
Reduced MIP has 8346 rows, 292 columns, and 170180 nonzeros.
Reduced MIP has 111 binaries, 181 generals, 0 SOSs, and 0 indicators.
Presolve time = 0.04 sec. (61.97 ticks)
Probing time = 0.00 sec. (2.09 ticks)
Tried aggregator 1 time.
Detecting symmetries...
Reduced MIP has 8346 rows, 292 columns, and 170180 nonzeros.
Reduced MIP has 111 binaries, 181 generals, 0 SOSs, and 0 indicators.
Presolve time = 0.04 sec. (46.86 ticks)
Represolve time = 0.09 sec. (129.23 ticks)
Probing time = 0.00 sec. (2.09 ticks)
MIP emphasis: best bound.
MIP search method: dynamic search.
Parallel mode: deterministic, using up to 8 threads.
Root relaxation solution time = 0.13 sec. (160.03 ticks)

        Nodes                                         Cuts/
   Node  Left     Objective  IInf  Best Integer    Best Bound    ItCnt     Gap

*     0+    0                            0.0632        0.0000            99.98%
      0     0        0.0127    13        0.0632        0.0127      678   79.94%
      0     2        0.0127    13        0.0632        0.0190      678   69.94%
Elapsed time = 1.28 sec. (2109.20 ticks, tree = 0.02 MB, solutions = 7)
*     6+    1                            0.0554        0.0190            65.67%
*     7+    1                            0.0553        0.0190            65.65%
     25     9        0.0474     4        0.0553        0.0190      917   65.65%
     78    70        0.0269    30        0.0553        0.0190     4958   65.65%
    130   116        0.0301    10        0.0553        0.0203     8987   63.28%
    184   166        0.0318    40        0.0553        0.0236    12797   57.39%
    247   211        0.0342    43        0.0553        0.0270    15409   51.25%
    298   265        0.0285    54        0.0553        0.0281    19685   49.19%
    354   310        0.0364     9        0.0553        0.0285    22625   48.47%
    417   403        0.0305    59        0.0553        0.0295    29150   46.72%
    488   453        0.0376    30        0.0553        0.0302    32527   45.44%
    700   644        0.0415    42        0.0553        0.0328    45651   40.71%
Elapsed time = 3.80 sec. (5266.85 ticks, tree = 1.30 MB, solutions = 16)
    919   856        0.0339    50        0.0553        0.0335    59358   39.43%

Clique cuts applied:  0
Flow cuts applied:  0
Flow path cuts applied:  0
Disjunctive cuts applied:  0
Cone linearizations applied:  0

Root node processing (before b&c):
  Real time             =    1.27 sec. (2101.85 ticks)
Parallel b&c, 8 threads:
  Real time             =    3.74 sec. (4757.15 ticks)
  Sync time (average)   =    0.40 sec.
  Wait time (average)   =    0.00 sec.
                          ------------
Total (root+branch&cut) =    5.01 sec. (6859.00 ticks)
Gap: 38.04%
Upper bound: 0.0553338
Lower bound: 0.0342862
End of CPLEX run. Time: 5.01294 seconds

===== New CPLEX run =====
Instance: /home/yorig/tuner/mpils-tests/instances/miplib/medium-1/mushroom-best.mps
Config: /scratch/yorig/mpils-results-grid-seconds-5/medium-1/24proc/seed-2/7_mushroom-best_seed-2_20260503_110448/expansion/config_param_CPXPARAM_MIP_Strategy_RINSHeur_40_iter_1.prm
========================

Selected objective sense:  MINIMIZE
Selected objective  name:  obj
Selected RHS        name:  rhs
Selected bound      name:  bnd
Version identifier: 22.1.2.0 | 2024-11-26 | 0edbb82fd
CPXPARAM_Threads                                 8
CPXPARAM_Parallel                                1
CPXPARAM_MIP_Cuts_Cliques                        1
CPXPARAM_MIP_Cuts_FlowCovers                     1
CPXPARAM_MIP_Cuts_GUBCovers                      -1
CPXPARAM_MIP_Limits_GomoryCand                   10
CPXPARAM_MIP_Cuts_Gomory                         -1
CPXPARAM_MIP_Cuts_PathCut                        1
CPXPARAM_MIP_Cuts_MIRCut                         -1
CPXPARAM_MIP_Cuts_Disjunctive                    2
CPXPARAM_Emphasis_MIP                            3
CPXPARAM_MIP_Strategy_RINSHeur                   40
CPXPARAM_TimeLimit                               5
Found incumbent of value 8124.895732 after 0.00 sec. (1.54 ticks)
Tried aggregator 2 times.
MIP Presolve eliminated 88 rows and 0 columns.
MIP Presolve modified 8124 coefficients.
Aggregator did 4 substitutions.
Reduced MIP has 8488 rows, 8464 columns, and 180316 nonzeros.
Reduced MIP has 8237 binaries, 114 generals, 0 SOSs, and 0 indicators.
Presolve time = 0.05 sec. (69.18 ticks)
Probing time = 0.00 sec. (2.69 ticks)
Tried aggregator 2 times.
Detecting symmetries...
MIP Presolve modified 6649 coefficients.
Aggregator did 44 substitutions.
Reduced MIP has 8444 rows, 8420 columns, and 180228 nonzeros.
Reduced MIP has 8237 binaries, 183 generals, 0 SOSs, and 0 indicators.
Presolve time = 0.08 sec. (102.88 ticks)
Probing time = 0.00 sec. (2.82 ticks)
MIP emphasis: best bound.
MIP search method: dynamic search.
Parallel mode: deterministic, using up to 8 threads.
Root relaxation solution time = 0.15 sec. (206.49 ticks)

        Nodes                                         Cuts/
   Node  Left     Objective  IInf  Best Integer    Best Bound    ItCnt     Gap

*     0+    0                         8124.8957        0.0000           100.00%
*     0+    0                         3916.5463        0.0000           100.00%
*     0+    0                         3916.5456        0.0000           100.00%
*     0+    0                         3916.5450        0.0000           100.00%
*     0+    0                         3916.0000        0.0000           100.00%
      0     0        0.0000    26     3916.0000        0.0000      406  100.00%
*     0+    0                           38.1106        0.0000           100.00%
*     0+    0                            0.0711        0.0000            99.98%
*     0+    0                            0.0632        0.0000            99.98%
      0     0  -1.00000e+75     0        0.0632        0.0000      406   99.98%

Repeating presolve.
Tried aggregator 1 time.
MIP Presolve eliminated 98 rows and 8128 columns.
MIP Presolve modified 8124 coefficients.
Reduced MIP has 8346 rows, 292 columns, and 170180 nonzeros.
Reduced MIP has 111 binaries, 181 generals, 0 SOSs, and 0 indicators.
Presolve time = 0.04 sec. (61.97 ticks)
Probing time = 0.00 sec. (2.09 ticks)
Tried aggregator 1 time.
Detecting symmetries...
Reduced MIP has 8346 rows, 292 columns, and 170180 nonzeros.
Reduced MIP has 111 binaries, 181 generals, 0 SOSs, and 0 indicators.
Presolve time = 0.04 sec. (46.86 ticks)
Represolve time = 0.09 sec. (129.23 ticks)
Probing time = 0.00 sec. (2.09 ticks)
MIP emphasis: best bound.
MIP search method: dynamic search.
Parallel mode: deterministic, using up to 8 threads.
Root relaxation solution time = 0.13 sec. (160.03 ticks)

        Nodes                                         Cuts/
   Node  Left     Objective  IInf  Best Integer    Best Bound    ItCnt     Gap

*     0+    0                            0.0632        0.0000            99.98%
      0     0        0.0127    13        0.0632        0.0127      678   79.94%
      0     2        0.0127    13        0.0632        0.0190      678   69.94%
Elapsed time = 1.29 sec. (2109.20 ticks, tree = 0.02 MB, solutions = 7)
*     6+    1                            0.0554        0.0190            65.67%
*     7+    1                            0.0553        0.0190            65.65%
     25     9        0.0474     4        0.0553        0.0190      917   65.65%
     78    70        0.0269    30        0.0553        0.0190     4958   65.65%
    130   106        0.0235    48        0.0553        0.0203     7854   63.28%
    199   166        0.0317    12        0.0553        0.0261    12572   52.79%
    253   213        0.0348    11        0.0553        0.0276    16073   50.19%
    320   265        0.0356    11        0.0553        0.0277    19765   49.86%
    368   333        0.0316     5        0.0553        0.0285    23816   48.47%
    444   388        0.0316    10        0.0553        0.0297    27830   46.34%
    508   459        0.0380     5        0.0553        0.0312    32191   43.61%
    796   745        0.0361    59        0.0553        0.0333    49542   39.90%
Elapsed time = 3.86 sec. (5249.45 ticks, tree = 1.05 MB, solutions = 16)
   1093  1022        0.0346    39        0.0553        0.0340    62984   38.52%

Clique cuts applied:  0
Flow cuts applied:  0
Flow path cuts applied:  0
Disjunctive cuts applied:  0
Cone linearizations applied:  0

Root node processing (before b&c):
  Real time             =    1.28 sec. (2101.85 ticks)
Parallel b&c, 8 threads:
  Real time             =    3.73 sec. (4597.41 ticks)
  Sync time (average)   =    0.42 sec.
  Wait time (average)   =    0.00 sec.
                          ------------
Total (root+branch&cut) =    5.01 sec. (6699.26 ticks)
Gap: 37.1%
Upper bound: 0.0553338
Lower bound: 0.0348047
End of CPLEX run. Time: 5.00864 seconds
